# Solution for model r5_t27_m0_9 Batch Number: 5
# Finished Task: 27 / 27
# Makespan: 545.0, Total Distance: 616.0, Total Time: 3.5042
# R O S F Batch
0 0 23 0.0 0.0 -1
1 1 17 0.0 0.0 -1
2 2 7 0.0 0.0 -1
3 3 19 0.0 0.0 -1
4 4 8 0.0 0.0 -1
5 0 -1 488.0 512.0 4
6 0 31 227.0 260.0 1
7 2 30 378.0 412.0 4
8 4 15 52.0 74.0 0
9 3 28 216.0 244.0 0
10 1 20 310.0 348.0 2
11 0 18 353.0 378.0 4
12 3 13 390.0 418.0 3
13 3 -1 437.0 465.0 3
14 4 26 467.0 501.0 4
15 4 21 286.0 308.0 1
16 3 12 330.0 364.0 2
17 1 25 173.0 206.0 0
18 0 5 412.0 450.0 4
19 3 9 149.0 185.0 0
20 1 29 372.0 393.0 3
21 4 22 356.0 383.0 3
22 4 14 418.0 445.0 3
23 0 6 180.0 216.0 0
24 2 -1 493.0 513.0 4
25 1 10 260.0 286.0 1
26 4 -1 513.0 544.0 4
27 1 -1 512.0 545.0 4
28 3 16 301.0 330.0 2
29 1 27 450.0 476.0 4
30 2 24 429.0 455.0 4
31 0 11 316.0 340.0 4
